c Result of efficient AIG-to-CNF conversion using package CNF
p cnf 507 1987
-2 3 410 412 414 0
-2 3 -410 -412 414 0
2 -414 0
2 -410 412 0
2 -3 0
2 410 -412 0
3 4 -284 0
3 -4 284 0
-3 -4 -284 0
-3 4 284 0
4 5 -79 0
4 -5 79 0
-4 -5 -79 0
-4 5 79 0
5 6 -37 0
5 -6 37 0
-5 -6 -37 0
-5 6 37 0
6 -444 -476 0
6 -476 -7 0
6 -444 -7 0
-6 444 7 0
-6 476 7 0
-6 444 476 0
7 -445 -477 0
7 -477 -8 0
7 -445 -8 0
-7 445 8 0
-7 477 8 0
-7 445 477 0
8 -446 -478 0
8 -478 -9 0
8 -446 -9 0
-8 446 9 0
-8 478 9 0
-8 446 478 0
9 -447 -479 0
9 -479 -10 0
9 -447 -10 0
-9 447 10 0
-9 479 10 0
-9 447 479 0
10 -448 -480 0
10 -480 -11 0
10 -448 -11 0
-10 448 11 0
-10 480 11 0
-10 448 480 0
11 -449 -481 0
11 -481 -12 0
11 -449 -12 0
-11 449 12 0
-11 481 12 0
-11 449 481 0
12 -450 -482 0
12 -482 -13 0
12 -450 -13 0
-12 450 13 0
-12 482 13 0
-12 450 482 0
13 -451 -483 0
13 -483 -14 0
13 -451 -14 0
-13 451 14 0
-13 483 14 0
-13 451 483 0
14 -452 -484 0
14 -484 -15 0
14 -452 -15 0
-14 452 15 0
-14 484 15 0
-14 452 484 0
15 -453 -485 0
15 -485 -16 0
15 -453 -16 0
-15 453 16 0
-15 485 16 0
-15 453 485 0
16 -454 -486 0
16 -486 -17 0
16 -454 -17 0
-16 454 17 0
-16 486 17 0
-16 454 486 0
17 -455 -487 0
17 -487 -18 0
17 -455 -18 0
-17 455 18 0
-17 487 18 0
-17 455 487 0
18 -456 -488 0
18 -488 -19 0
18 -456 -19 0
-18 456 19 0
-18 488 19 0
-18 456 488 0
19 -457 -489 0
19 -489 -20 0
19 -457 -20 0
-19 457 20 0
-19 489 20 0
-19 457 489 0
20 -458 -490 0
20 -490 -21 0
20 -458 -21 0
-20 458 21 0
-20 490 21 0
-20 458 490 0
21 -459 -491 0
21 -491 -22 0
21 -459 -22 0
-21 459 22 0
-21 491 22 0
-21 459 491 0
22 -460 -492 0
22 -492 -23 0
22 -460 -23 0
-22 460 23 0
-22 492 23 0
-22 460 492 0
23 -461 -493 0
23 -493 -24 0
23 -461 -24 0
-23 461 24 0
-23 493 24 0
-23 461 493 0
24 -462 -494 0
24 -494 -25 0
24 -462 -25 0
-24 462 25 0
-24 494 25 0
-24 462 494 0
25 -463 -495 0
25 -495 -26 0
25 -463 -26 0
-25 463 26 0
-25 495 26 0
-25 463 495 0
26 -464 -496 0
26 -496 -27 0
26 -464 -27 0
-26 464 27 0
-26 496 27 0
-26 464 496 0
27 -465 -497 0
27 -497 -28 0
27 -465 -28 0
-27 465 28 0
-27 497 28 0
-27 465 497 0
28 -466 -498 0
28 -498 -29 0
28 -466 -29 0
-28 466 29 0
-28 498 29 0
-28 466 498 0
29 -467 -499 0
29 -499 -30 0
29 -467 -30 0
-29 467 30 0
-29 499 30 0
-29 467 499 0
30 -468 -500 0
30 -500 -31 0
30 -468 -31 0
-30 468 31 0
-30 500 31 0
-30 468 500 0
31 -469 -501 0
31 -501 -32 0
31 -469 -32 0
-31 469 32 0
-31 501 32 0
-31 469 501 0
32 -470 -502 0
32 -502 -33 0
32 -470 -33 0
-32 470 33 0
-32 502 33 0
-32 470 502 0
33 -471 -503 0
33 -503 -34 0
33 -471 -34 0
-33 471 34 0
-33 503 34 0
-33 471 503 0
34 -472 -504 0
34 -504 -35 0
34 -472 -35 0
-34 472 35 0
-34 504 35 0
-34 472 504 0
35 -473 -505 0
35 -505 -36 0
35 -473 -36 0
-35 473 36 0
-35 505 36 0
-35 473 505 0
36 -474 -506 0
-36 474 0
-36 506 0
37 -475 38 0
37 475 -38 0
-37 475 38 0
-37 -475 -38 0
-38 443 39 0
38 -443 0
38 -39 0
39 470 -40 55 0
39 -470 55 -66 0
-39 -55 0
-39 -470 66 0
-39 470 40 0
40 471 -41 0
40 -471 -48 0
-40 -471 48 0
-40 471 41 0
41 472 -42 0
41 -472 -45 0
-41 -472 45 0
-41 472 42 0
42 -473 -43 0
42 473 -44 0
-42 -473 43 0
-42 473 44 0
43 -446 -474 0
43 -445 474 0
-43 445 474 0
-43 446 -474 0
-44 443 474 0
-44 444 -474 0
44 -444 -474 0
44 -443 474 0
45 473 -46 0
45 -473 -47 0
-45 -473 47 0
-45 473 46 0
46 -448 -474 0
46 -447 474 0
-46 447 474 0
-46 448 -474 0
47 -450 -474 0
47 -449 474 0
-47 449 474 0
-47 450 -474 0
48 472 -49 0
48 -472 -52 0
-48 -472 52 0
-48 472 49 0
49 473 -50 0
49 -473 -51 0
-49 -473 51 0
-49 473 50 0
50 -452 -474 0
50 -451 474 0
-50 451 474 0
-50 452 -474 0
51 -454 -474 0
51 -453 474 0
-51 453 474 0
-51 454 -474 0
52 473 -53 0
52 -473 -54 0
-52 -473 54 0
-52 473 53 0
53 -456 -474 0
53 -455 474 0
-53 455 474 0
-53 456 -474 0
54 -458 -474 0
54 -457 474 0
-54 457 474 0
-54 458 -474 0
-55 56 62 64 65 0
55 -65 0
55 -56 0
55 -64 0
55 -62 0
-56 457 459 57 59 0
56 -457 0
56 -59 0
56 -57 0
56 -459 0
-57 449 455 456 58 0
57 -58 0
57 -456 0
57 -449 0
57 -455 0
-58 453 454 460 0
58 -453 0
58 -460 0
58 -454 0
-59 450 451 452 60 0
59 -60 0
59 -452 0
59 -450 0
59 -451 0
-60 463 466 469 61 0
60 -61 0
60 -469 0
60 -463 0
60 -466 0
-61 464 465 0
61 -464 0
61 -465 0
-62 461 467 468 63 0
62 -63 0
62 -468 0
62 -461 0
62 -467 0
-63 448 458 0
63 -448 0
63 -458 0
-64 444 462 0
64 -444 0
64 -462 0
-65 445 446 447 0
65 -445 0
65 -447 0
65 -446 0
66 471 -67 0
66 -471 -74 0
-66 -471 74 0
-66 471 67 0
67 472 -68 0
67 -472 -71 0
-67 -472 71 0
-67 472 68 0
68 473 -69 0
68 -473 -70 0
-68 -473 70 0
-68 473 69 0
69 -460 -474 0
69 -459 474 0
-69 459 474 0
-69 460 -474 0
70 -462 -474 0
70 -461 474 0
-70 461 474 0
-70 462 -474 0
71 473 -72 0
71 -473 -73 0
-71 -473 73 0
-71 473 72 0
72 -464 -474 0
72 -463 474 0
-72 463 474 0
-72 464 -474 0
73 -466 -474 0
73 -465 474 0
-73 465 474 0
-73 466 -474 0
74 472 -75 0
74 -472 -78 0
-74 -472 78 0
-74 472 75 0
75 473 -76 0
75 -473 -77 0
-75 -473 77 0
-75 473 76 0
76 -468 -474 0
76 -467 474 0
-76 467 474 0
-76 468 -474 0
77 -470 -474 0
77 -469 474 0
-77 469 474 0
-77 470 -474 0
-78 472 473 -474 0
-78 471 473 474 0
78 -473 0
78 -471 474 0
78 -472 -474 0
79 -80 -111 0
79 -80 -109 0
79 -109 -111 0
-79 109 111 0
-79 80 111 0
-79 80 109 0
80 -470 81 -97 0
80 470 81 -82 0
-80 -81 0
-80 -470 97 0
-80 470 82 0
-81 443 55 0
81 -443 0
81 -55 0
-82 471 83 0
-82 -471 90 0
82 -471 -90 0
82 471 -83 0
-83 472 84 0
-83 -472 87 0
83 -472 -87 0
83 472 -84 0
-84 473 86 0
-84 -473 85 0
84 -473 -85 0
84 473 -86 0
85 -447 -474 0
85 -446 474 0
-85 446 474 0
-85 447 -474 0
86 -445 -474 0
86 -444 474 0
-86 444 474 0
-86 445 -474 0
87 473 -88 0
87 -473 -89 0
-87 -473 89 0
-87 473 88 0
88 -449 -474 0
88 -448 474 0
-88 448 474 0
-88 449 -474 0
89 -451 -474 0
89 -450 474 0
-89 450 474 0
-89 451 -474 0
90 472 -91 0
90 -472 -94 0
-90 -472 94 0
-90 472 91 0
91 473 -92 0
91 -473 -93 0
-91 -473 93 0
-91 473 92 0
92 -453 -474 0
92 -452 474 0
-92 452 474 0
-92 453 -474 0
93 -455 -474 0
93 -454 474 0
-93 454 474 0
-93 455 -474 0
94 473 -95 0
94 -473 -96 0
-94 -473 96 0
-94 473 95 0
95 -457 -474 0
95 -456 474 0
-95 456 474 0
-95 457 -474 0
96 -459 -474 0
96 -458 474 0
-96 458 474 0
-96 459 -474 0
97 471 -98 0
97 -471 -105 0
-97 -471 105 0
-97 471 98 0
98 472 -99 0
98 -472 -102 0
-98 -472 102 0
-98 472 99 0
99 473 -100 0
99 -473 -101 0
-99 -473 101 0
-99 473 100 0
100 -461 -474 0
100 -460 474 0
-100 460 474 0
-100 461 -474 0
101 -463 -474 0
101 -462 474 0
-101 462 474 0
-101 463 -474 0
102 473 -103 0
102 -473 -104 0
-102 -473 104 0
-102 473 103 0
103 -465 -474 0
103 -464 474 0
-103 464 474 0
-103 465 -474 0
104 -467 -474 0
104 -466 474 0
-104 466 474 0
-104 467 -474 0
-105 -472 -473 0
-105 472 106 0
-105 -472 -474 0
105 472 -106 0
105 -472 473 474 0
106 473 -107 0
106 -473 -108 0
-106 -473 108 0
-106 473 107 0
107 -469 -474 0
107 -468 474 0
-107 468 474 0
-107 469 -474 0
108 -471 -474 0
108 -470 474 0
-108 470 474 0
-108 471 -474 0
-109 -7 -110 0
-109 7 110 0
109 7 -110 0
109 -7 110 0
110 444 -476 0
110 -444 476 0
-110 -444 -476 0
-110 444 476 0
111 -112 -129 0
111 -112 -127 0
111 -127 -129 0
-111 127 129 0
-111 112 129 0
-111 112 127 0
112 -470 81 -120 0
112 470 81 -113 0
-112 -81 0
-112 -470 120 0
-112 470 113 0
-113 471 114 0
-113 -471 117 0
113 -471 -117 0
113 471 -114 0
-114 472 115 0
-114 -472 116 0
114 -472 -116 0
114 472 -115 0
-115 -473 46 0
-115 473 43 0
115 473 -43 0
115 -473 -46 0
116 473 -47 0
116 -473 -50 0
-116 -473 50 0
-116 473 47 0
117 472 -118 0
117 -472 -119 0
-117 -472 119 0
-117 472 118 0
118 473 -51 0
118 -473 -53 0
-118 -473 53 0
-118 473 51 0
119 473 -54 0
119 -473 -69 0
-119 -473 69 0
-119 473 54 0
120 471 -121 0
120 -471 -124 0
-120 -471 124 0
-120 471 121 0
121 472 -122 0
121 -472 -123 0
-121 -472 123 0
-121 472 122 0
122 473 -70 0
122 -473 -72 0
-122 -473 72 0
-122 473 70 0
123 473 -73 0
123 -473 -76 0
-123 -473 76 0
-123 473 73 0
124 472 -125 0
124 -472 473 -474 0
-124 -472 -473 0
-124 472 125 0
-124 -472 474 0
125 473 -77 0
125 -473 -126 0
-125 -473 126 0
-125 473 77 0
126 -472 -474 0
126 -471 474 0
-126 471 474 0
-126 472 -474 0
-127 -8 -128 0
-127 8 128 0
127 8 -128 0
127 -8 128 0
128 445 -477 0
128 -445 477 0
-128 -445 -477 0
-128 445 477 0
129 -130 -146 0
129 -130 -144 0
129 -144 -146 0
-129 144 146 0
-129 130 146 0
-129 130 144 0
130 -470 81 -138 0
130 470 81 -131 0
-130 -81 0
-130 -470 138 0
-130 470 131 0
-131 471 132 0
-131 -471 135 0
131 -471 -135 0
131 471 -132 0
-132 472 133 0
-132 -472 134 0
132 -472 -134 0
132 472 -133 0
-133 -473 88 0
-133 473 85 0
133 473 -85 0
133 -473 -88 0
134 473 -89 0
134 -473 -92 0
-134 -473 92 0
-134 473 89 0
135 472 -136 0
135 -472 -137 0
-135 -472 137 0
-135 472 136 0
136 473 -93 0
136 -473 -95 0
-136 -473 95 0
-136 473 93 0
137 473 -96 0
137 -473 -100 0
-137 -473 100 0
-137 473 96 0
138 471 -139 0
138 -471 -142 0
-138 -471 142 0
-138 471 139 0
139 472 -140 0
139 -472 -141 0
-139 -472 141 0
-139 472 140 0
140 473 -101 0
140 -473 -103 0
-140 -473 103 0
-140 473 101 0
141 473 -104 0
141 -473 -107 0
-141 -473 107 0
-141 473 104 0
142 472 -143 0
-142 -472 0
-142 143 0
143 -472 -473 0
143 473 -108 0
143 -473 -474 0
-143 473 108 0
-143 472 -473 474 0
-144 -9 -145 0
-144 9 145 0
144 9 -145 0
144 -9 145 0
145 446 -478 0
145 -446 478 0
-145 -446 -478 0
-145 446 478 0
146 -147 -156 0
146 -147 -154 0
146 -154 -156 0
-146 154 156 0
-146 147 156 0
-146 147 154 0
147 -470 81 -151 0
147 470 81 -148 0
-147 -81 0
-147 -470 151 0
-147 470 148 0
-148 471 149 0
-148 -471 150 0
148 -471 -150 0
148 471 -149 0
-149 -472 49 0
-149 472 45 0
149 472 -45 0
149 -472 -49 0
150 472 -52 0
150 -472 -68 0
-150 -472 68 0
-150 472 52 0
151 471 -152 0
151 -471 -153 0
-151 -471 153 0
-151 471 152 0
152 472 -71 0
152 -472 -75 0
-152 -472 75 0
-152 472 71 0
153 472 -473 0
153 -471 472 474 0
-153 -472 0
-153 473 -474 0
-153 471 473 0
-154 -10 -155 0
-154 10 155 0
154 10 -155 0
154 -10 155 0
155 447 -479 0
155 -447 479 0
-155 -447 -479 0
-155 447 479 0
156 -157 -165 0
156 -157 -163 0
156 -163 -165 0
-156 163 165 0
-156 157 165 0
-156 157 163 0
157 -470 81 -161 0
157 470 81 -158 0
-157 -81 0
-157 -470 161 0
-157 470 158 0
158 471 -159 0
158 -471 -160 0
-158 -471 160 0
-158 471 159 0
159 472 -87 0
159 -472 -91 0
-159 -472 91 0
-159 472 87 0
160 472 -94 0
160 -472 -99 0
-160 -472 99 0
-160 472 94 0
161 471 -162 0
-161 -471 0
-161 162 0
162 472 -102 0
162 -472 -106 0
-162 -472 106 0
-162 472 102 0
-163 -11 -164 0
-163 11 164 0
163 11 -164 0
163 -11 164 0
164 448 -480 0
164 -448 480 0
-164 -448 -480 0
-164 448 480 0
165 -166 -175 0
165 -166 -173 0
165 -173 -175 0
-165 173 175 0
-165 166 175 0
-165 166 173 0
166 -470 81 -170 0
166 470 81 -167 0
-166 -81 0
-166 -470 170 0
-166 470 167 0
-167 471 168 0
-167 -471 169 0
167 -471 -169 0
167 471 -168 0
-168 -472 118 0
-168 472 116 0
168 472 -116 0
168 -472 -118 0
169 472 -119 0
169 -472 -122 0
-169 -472 122 0
-169 472 119 0
170 471 -171 0
170 -471 -172 0
-170 -471 172 0
-170 471 171 0
171 472 -123 0
171 -472 -125 0
-171 -472 125 0
-171 472 123 0
172 472 473 -474 0
-172 474 0
-172 -473 0
-172 -472 0
-173 -12 -174 0
-173 12 174 0
173 12 -174 0
173 -12 174 0
174 449 -481 0
174 -449 481 0
-174 -449 -481 0
-174 449 481 0
175 -176 -184 0
175 -176 -182 0
175 -182 -184 0
-175 182 184 0
-175 176 184 0
-175 176 182 0
176 -470 81 -180 0
176 470 81 -177 0
-176 -81 0
-176 -470 180 0
-176 470 177 0
177 471 -178 0
177 -471 -179 0
-177 -471 179 0
-177 471 178 0
178 472 -134 0
178 -472 -136 0
-178 -472 136 0
-178 472 134 0
179 472 -137 0
179 -472 -140 0
-179 -472 140 0
-179 472 137 0
180 471 -181 0
-180 -471 0
-180 181 0
181 -472 -473 0
181 472 -141 0
181 -472 -108 0
-181 472 141 0
-181 -472 473 108 0
-182 -13 -183 0
-182 13 183 0
182 13 -183 0
182 -13 183 0
183 450 -482 0
183 -450 482 0
-183 -450 -482 0
-183 450 482 0
184 -185 -190 0
184 -185 -188 0
184 -188 -190 0
-184 188 190 0
-184 185 190 0
-184 185 188 0
185 -470 81 -187 0
185 470 81 -186 0
-185 -81 0
-185 -470 187 0
-185 470 186 0
186 471 -48 0
186 -471 -67 0
-186 -471 67 0
-186 471 48 0
187 471 -74 0
-187 -471 0
-187 74 0
-188 -14 -189 0
-188 14 189 0
188 14 -189 0
188 -14 189 0
189 451 -483 0
189 -451 483 0
-189 -451 -483 0
-189 451 483 0
190 -191 -196 0
190 -191 -194 0
190 -194 -196 0
-190 194 196 0
-190 191 196 0
-190 191 194 0
191 -470 81 -193 0
191 470 81 -192 0
-191 -81 0
-191 -470 193 0
-191 470 192 0
192 471 -90 0
192 -471 -98 0
-192 -471 98 0
-192 471 90 0
193 471 -105 0
-193 -471 0
-193 105 0
-194 -15 -195 0
-194 15 195 0
194 15 -195 0
194 -15 195 0
195 452 -484 0
195 -452 484 0
-195 -452 -484 0
-195 452 484 0
196 -197 -202 0
196 -197 -200 0
196 -200 -202 0
-196 200 202 0
-196 197 202 0
-196 197 200 0
197 -470 81 -199 0
197 470 81 -198 0
-197 -81 0
-197 -470 199 0
-197 470 198 0
198 471 -117 0
198 -471 -121 0
-198 -471 121 0
-198 471 117 0
199 471 -124 0
-199 -471 0
-199 124 0
-200 -16 -201 0
-200 16 201 0
200 16 -201 0
200 -16 201 0
201 453 -485 0
201 -453 485 0
-201 -453 -485 0
-201 453 485 0
202 -203 -208 0
202 -203 -206 0
202 -206 -208 0
-202 206 208 0
-202 203 208 0
-202 203 206 0
203 -470 81 -205 0
203 470 81 -204 0
-203 -81 0
-203 -470 205 0
-203 470 204 0
204 471 -135 0
204 -471 -139 0
-204 -471 139 0
-204 471 135 0
205 471 -142 0
-205 -471 0
-205 142 0
-206 -17 -207 0
-206 17 207 0
206 17 -207 0
206 -17 207 0
207 454 -486 0
207 -454 486 0
-207 -454 -486 0
-207 454 486 0
208 -209 -214 0
208 -209 -212 0
208 -212 -214 0
-208 212 214 0
-208 209 214 0
-208 209 212 0
209 -470 81 -211 0
209 470 81 -210 0
-209 -81 0
-209 -470 211 0
-209 470 210 0
210 471 -150 0
210 -471 -152 0
-210 -471 152 0
-210 471 150 0
211 471 472 -473 0
-211 473 0
-211 -472 0
-211 -471 0
-212 -18 -213 0
-212 18 213 0
212 18 -213 0
212 -18 213 0
213 455 -487 0
213 -455 487 0
-213 -455 -487 0
-213 455 487 0
214 -215 -219 0
214 -215 -217 0
214 -217 -219 0
-214 217 219 0
-214 215 219 0
-214 215 217 0
215 471 -160 216 0
215 -471 -162 216 0
-215 -216 0
-215 -471 162 0
-215 471 160 0
-216 470 81 0
216 -470 0
216 -81 0
-217 -19 -218 0
-217 19 218 0
217 19 -218 0
217 -19 218 0
218 456 -488 0
218 -456 488 0
-218 -456 -488 0
-218 456 488 0
219 -220 -225 0
219 -220 -223 0
219 -223 -225 0
-219 223 225 0
-219 220 225 0
-219 220 223 0
220 -470 81 -222 0
220 470 81 -221 0
-220 -81 0
-220 -470 222 0
-220 470 221 0
221 471 -169 0
221 -471 -171 0
-221 -471 171 0
-221 471 169 0
222 471 472 473 -474 0
-222 474 0
-222 -473 0
-222 -471 0
-222 -472 0
-223 -20 -224 0
-223 20 224 0
223 20 -224 0
223 -20 224 0
224 457 -489 0
224 -457 489 0
-224 -457 -489 0
-224 457 489 0
225 -226 -229 0
225 -226 -227 0
225 -227 -229 0
-225 227 229 0
-225 226 229 0
-225 226 227 0
226 471 -179 216 0
226 -471 -181 216 0
-226 -216 0
-226 -471 181 0
-226 471 179 0
-227 -21 -228 0
-227 21 228 0
227 21 -228 0
227 -21 228 0
228 458 -490 0
228 -458 490 0
-228 -458 -490 0
-228 458 490 0
229 -230 -233 0
229 -230 -231 0
229 -231 -233 0
-229 231 233 0
-229 230 233 0
-229 230 231 0
230 -66 216 0
-230 66 0
-230 -216 0
-231 -22 -232 0
-231 22 232 0
231 22 -232 0
231 -22 232 0
232 459 -491 0
232 -459 491 0
-232 -459 -491 0
-232 459 491 0
233 -234 -237 0
233 -234 -235 0
233 -235 -237 0
-233 235 237 0
-233 234 237 0
-233 234 235 0
234 -97 216 0
-234 97 0
-234 -216 0
-235 -23 -236 0
-235 23 236 0
235 23 -236 0
235 -23 236 0
236 460 -492 0
236 -460 492 0
-236 -460 -492 0
-236 460 492 0
237 -238 -241 0
237 -238 -239 0
237 -239 -241 0
-237 239 241 0
-237 238 241 0
-237 238 239 0
238 -120 216 0
-238 120 0
-238 -216 0
-239 -24 -240 0
-239 24 240 0
239 24 -240 0
239 -24 240 0
240 461 -493 0
240 -461 493 0
-240 -461 -493 0
-240 461 493 0
241 -242 -245 0
241 -242 -243 0
241 -243 -245 0
-241 243 245 0
-241 242 245 0
-241 242 243 0
242 -138 216 0
-242 138 0
-242 -216 0
-243 -25 -244 0
-243 25 244 0
243 25 -244 0
243 -25 244 0
244 462 -494 0
244 -462 494 0
-244 -462 -494 0
-244 462 494 0
245 -246 -249 0
245 -246 -247 0
245 -247 -249 0
-245 247 249 0
-245 246 249 0
-245 246 247 0
246 -151 216 0
-246 151 0
-246 -216 0
-247 -26 -248 0
-247 26 248 0
247 26 -248 0
247 -26 248 0
248 463 -495 0
248 -463 495 0
-248 -463 -495 0
-248 463 495 0
249 -250 -252 -255 0
249 -250 -253 -255 0
249 -250 -252 -253 0
-249 252 255 0
-249 252 253 0
-249 250 0
-249 253 255 0
-250 -27 -251 0
-250 27 251 0
250 27 -251 0
250 -27 251 0
251 464 -496 0
251 -464 496 0
-251 -464 -496 0
-251 464 496 0
252 -170 216 0
-252 170 0
-252 -216 0
-253 -28 -254 0
-253 28 254 0
253 28 -254 0
253 -28 254 0
254 465 -497 0
254 -465 497 0
-254 -465 -497 0
-254 465 497 0
255 -256 -259 0
255 -256 -257 0
255 -257 -259 0
-255 257 259 0
-255 256 259 0
-255 256 257 0
256 -180 216 0
-256 180 0
-256 -216 0
-257 -29 -258 0
-257 29 258 0
257 29 -258 0
257 -29 258 0
258 466 -498 0
258 -466 498 0
-258 -466 -498 0
-258 466 498 0
259 -260 -263 0
259 -260 -261 0
259 -261 -263 0
-259 261 263 0
-259 260 263 0
-259 260 261 0
260 -187 216 0
-260 187 0
-260 -216 0
-261 -30 -262 0
-261 30 262 0
261 30 -262 0
261 -30 262 0
262 467 -499 0
262 -467 499 0
-262 -467 -499 0
-262 467 499 0
263 -264 -267 0
263 -264 -265 0
263 -265 -267 0
-263 265 267 0
-263 264 267 0
-263 264 265 0
264 -193 216 0
-264 193 0
-264 -216 0
-265 -31 -266 0
-265 31 266 0
265 31 -266 0
265 -31 266 0
266 468 -500 0
266 -468 500 0
-266 -468 -500 0
-266 468 500 0
267 -268 -270 0
267 -270 -271 0
267 -268 -271 0
-267 268 271 0
-267 270 271 0
-267 268 270 0
268 32 -269 0
268 -32 269 0
-268 -32 -269 0
-268 32 269 0
269 469 -501 0
269 -469 501 0
-269 -469 -501 0
-269 469 501 0
270 -199 216 0
-270 199 0
-270 -216 0
271 -272 -274 0
271 -274 -275 0
271 -272 -275 0
-271 272 275 0
-271 274 275 0
-271 272 274 0
272 33 -273 0
272 -33 273 0
-272 -33 -273 0
-272 33 273 0
273 470 -502 0
273 -470 502 0
-273 -470 -502 0
-273 470 502 0
274 -205 216 0
-274 205 0
-274 -216 0
275 -276 -278 0
275 -278 -279 0
275 -276 -279 0
-275 276 279 0
-275 278 279 0
-275 276 278 0
276 34 -277 0
276 -34 277 0
-276 -34 -277 0
-276 34 277 0
277 471 -503 0
277 -471 503 0
-277 -471 -503 0
-277 471 503 0
278 471 472 -473 216 0
-278 -471 0
-278 -216 0
-278 473 0
-278 -472 0
279 35 -280 -281 -282 0
279 -35 280 -281 -282 0
-279 282 0
-279 35 280 0
-279 281 0
-279 -35 -280 0
280 472 -504 0
280 -472 504 0
-280 -472 -504 0
-280 472 504 0
281 216 -222 0
-281 -216 0
-281 222 0
282 36 -283 0
282 -36 283 0
-282 -36 -283 0
-282 36 283 0
283 473 -505 0
283 -473 505 0
-283 -473 -505 0
-283 473 505 0
284 285 -316 0
284 -285 316 0
-284 -285 -316 0
-284 285 316 0
285 37 -286 0
285 -37 286 0
-285 -37 -286 0
-285 37 286 0
286 -476 -80 0
286 -80 -287 0
286 -476 -287 0
-286 476 287 0
-286 80 287 0
-286 476 80 0
287 -477 -112 0
287 -112 -288 0
287 -477 -288 0
-287 477 288 0
-287 112 288 0
-287 477 112 0
288 -478 -130 0
288 -130 -289 0
288 -478 -289 0
-288 478 289 0
-288 130 289 0
-288 478 130 0
289 -479 -147 0
289 -147 -290 0
289 -479 -290 0
-289 479 290 0
-289 147 290 0
-289 479 147 0
290 -480 -157 0
290 -157 -291 0
290 -480 -291 0
-290 480 291 0
-290 157 291 0
-290 480 157 0
291 -481 -166 0
291 -166 -292 0
291 -481 -292 0
-291 481 292 0
-291 166 292 0
-291 481 166 0
292 -482 -176 0
292 -176 -293 0
292 -482 -293 0
-292 482 293 0
-292 176 293 0
-292 482 176 0
293 -483 -185 0
293 -185 -294 0
293 -483 -294 0
-293 483 294 0
-293 185 294 0
-293 483 185 0
294 -484 -191 0
294 -191 -295 0
294 -484 -295 0
-294 484 295 0
-294 191 295 0
-294 484 191 0
295 -485 -197 0
295 -197 -296 0
295 -485 -296 0
-295 485 296 0
-295 197 296 0
-295 485 197 0
296 -486 -203 0
296 -203 -297 0
296 -486 -297 0
-296 486 297 0
-296 203 297 0
-296 486 203 0
297 -487 -209 0
297 -209 -298 0
297 -487 -298 0
-297 487 298 0
-297 209 298 0
-297 487 209 0
298 -488 -215 0
298 -215 -299 0
298 -488 -299 0
-298 488 299 0
-298 215 299 0
-298 488 215 0
299 -489 -220 0
299 -220 -300 0
299 -489 -300 0
-299 489 300 0
-299 220 300 0
-299 489 220 0
300 -490 -226 0
300 -226 -301 0
300 -490 -301 0
-300 490 301 0
-300 226 301 0
-300 490 226 0
301 -491 -230 0
301 -230 -302 0
301 -491 -302 0
-301 491 302 0
-301 230 302 0
-301 491 230 0
302 -492 -234 0
302 -234 -303 0
302 -492 -303 0
-302 492 303 0
-302 234 303 0
-302 492 234 0
303 -493 -238 0
303 -238 -304 0
303 -493 -304 0
-303 493 304 0
-303 238 304 0
-303 493 238 0
304 -494 -242 0
304 -242 -305 0
304 -494 -305 0
-304 494 305 0
-304 242 305 0
-304 494 242 0
305 -495 -246 0
305 -246 -306 0
305 -495 -306 0
-305 495 306 0
-305 246 306 0
-305 495 246 0
306 -496 -307 0
-306 496 0
-306 307 0
307 -497 -252 0
307 -252 -308 0
307 -497 -308 0
-307 497 308 0
-307 252 308 0
-307 497 252 0
308 -498 -256 0
308 -256 -309 0
308 -498 -309 0
-308 498 309 0
-308 256 309 0
-308 498 256 0
309 -499 -260 0
309 -260 -310 0
309 -499 -310 0
-309 499 310 0
-309 260 310 0
-309 499 260 0
310 -500 -264 0
310 -264 -311 0
310 -500 -311 0
-310 500 311 0
-310 264 311 0
-310 500 264 0
311 -501 -270 0
311 -270 -312 0
311 -501 -312 0
-311 501 312 0
-311 270 312 0
-311 501 270 0
312 -502 -274 0
312 -274 -313 0
312 -502 -313 0
-312 502 313 0
-312 274 313 0
-312 502 274 0
313 -503 -278 0
313 -278 -314 0
313 -503 -314 0
-313 503 314 0
-313 278 314 0
-313 503 278 0
314 -504 -315 0
-314 504 0
-314 315 0
315 -505 -281 0
-315 505 0
-315 281 0
316 -317 -318 0
316 -318 -320 0
-316 318 0
-316 317 320 0
317 -444 -476 0
-317 444 0
-317 476 0
-318 444 -287 -319 0
-318 444 287 319 0
318 -444 0
318 -287 319 0
318 287 -319 0
319 476 -80 0
319 -476 80 0
-319 -476 -80 0
-319 476 80 0
320 -321 -322 0
320 -322 -324 0
-320 322 0
-320 321 324 0
321 -445 -477 0
-321 445 0
-321 477 0
-322 445 -288 -323 0
-322 445 288 323 0
322 -445 0
322 -288 323 0
322 288 -323 0
323 477 -112 0
323 -477 112 0
-323 -477 -112 0
-323 477 112 0
324 -325 -326 0
324 -326 -328 0
-324 326 0
-324 325 328 0
325 -446 -478 0
-325 446 0
-325 478 0
-326 446 -289 -327 0
-326 446 289 327 0
326 -446 0
326 -289 327 0
326 289 -327 0
327 478 -130 0
327 -478 130 0
-327 -478 -130 0
-327 478 130 0
328 -329 -330 0
328 -330 -332 0
-328 330 0
-328 329 332 0
329 -447 -479 0
-329 447 0
-329 479 0
-330 447 -290 -331 0
-330 447 290 331 0
330 -447 0
330 -290 331 0
330 290 -331 0
331 479 -147 0
331 -479 147 0
-331 -479 -147 0
-331 479 147 0
332 -333 -334 0
332 -334 -336 0
-332 334 0
-332 333 336 0
333 -448 -480 0
-333 448 0
-333 480 0
-334 448 -291 -335 0
-334 448 291 335 0
334 -448 0
334 -291 335 0
334 291 -335 0
335 480 -157 0
335 -480 157 0
-335 -480 -157 0
-335 480 157 0
336 -337 -338 0
336 -338 -340 0
-336 338 0
-336 337 340 0
337 -449 -481 0
-337 449 0
-337 481 0
-338 449 -292 -339 0
-338 449 292 339 0
338 -449 0
338 -292 339 0
338 292 -339 0
339 481 -166 0
339 -481 166 0
-339 -481 -166 0
-339 481 166 0
340 -341 -342 0
340 -342 -344 0
-340 342 0
-340 341 344 0
341 -450 -482 0
-341 450 0
-341 482 0
-342 450 -293 -343 0
-342 450 293 343 0
342 -450 0
342 -293 343 0
342 293 -343 0
343 482 -176 0
343 -482 176 0
-343 -482 -176 0
-343 482 176 0
344 -345 -347 0
344 -451 -483 -345 0
-344 345 0
-344 483 347 0
-344 451 347 0
-345 451 -294 -346 0
-345 451 294 346 0
345 -451 0
345 -294 346 0
345 294 -346 0
346 483 -185 0
346 -483 185 0
-346 -483 -185 0
-346 483 185 0
347 -348 -350 0
347 -452 -484 -348 0
-347 348 0
-347 484 350 0
-347 452 350 0
-348 452 -295 -349 0
-348 452 295 349 0
348 -452 0
348 -295 349 0
348 295 -349 0
349 484 -191 0
349 -484 191 0
-349 -484 -191 0
-349 484 191 0
350 -351 -353 0
350 -453 -485 -351 0
-350 351 0
-350 485 353 0
-350 453 353 0
-351 453 -296 -352 0
-351 453 296 352 0
351 -453 0
351 -296 352 0
351 296 -352 0
352 485 -197 0
352 -485 197 0
-352 -485 -197 0
-352 485 197 0
353 -354 -356 0
353 -454 -486 -354 0
-353 354 0
-353 486 356 0
-353 454 356 0
-354 454 -297 -355 0
-354 454 297 355 0
354 -454 0
354 -297 355 0
354 297 -355 0
355 486 -203 0
355 -486 203 0
-355 -486 -203 0
-355 486 203 0
356 -357 -359 0
356 -455 -487 -357 0
-356 357 0
-356 487 359 0
-356 455 359 0
-357 455 -298 -358 0
-357 455 298 358 0
357 -455 0
357 -298 358 0
357 298 -358 0
358 487 -209 0
358 -487 209 0
-358 -487 -209 0
-358 487 209 0
359 -360 -362 0
359 -456 -488 -360 0
-359 360 0
-359 488 362 0
-359 456 362 0
-360 456 -299 -361 0
-360 456 299 361 0
360 -456 0
360 -299 361 0
360 299 -361 0
361 488 -215 0
361 -488 215 0
-361 -488 -215 0
-361 488 215 0
362 -363 -365 0
362 -457 -489 -363 0
-362 363 0
-362 489 365 0
-362 457 365 0
-363 457 -300 -364 0
-363 457 300 364 0
363 -457 0
363 -300 364 0
363 300 -364 0
364 489 -220 0
364 -489 220 0
-364 -489 -220 0
-364 489 220 0
365 -366 -368 0
365 -458 -490 -366 0
-365 366 0
-365 490 368 0
-365 458 368 0
-366 458 -301 -367 0
-366 458 301 367 0
366 -458 0
366 -301 367 0
366 301 -367 0
367 490 -226 0
367 -490 226 0
-367 -490 -226 0
-367 490 226 0
368 -369 -371 0
368 -459 -491 -369 0
-368 369 0
-368 491 371 0
-368 459 371 0
-369 459 -302 -370 0
-369 459 302 370 0
369 -459 0
369 -302 370 0
369 302 -370 0
370 491 -230 0
370 -491 230 0
-370 -491 -230 0
-370 491 230 0
371 -372 -374 0
371 -460 -492 -372 0
-371 372 0
-371 492 374 0
-371 460 374 0
-372 460 -303 -373 0
-372 460 303 373 0
372 -460 0
372 -303 373 0
372 303 -373 0
373 492 -234 0
373 -492 234 0
-373 -492 -234 0
-373 492 234 0
374 -375 -377 0
374 -461 -493 -375 0
-374 375 0
-374 493 377 0
-374 461 377 0
-375 461 -304 -376 0
-375 461 304 376 0
375 -461 0
375 -304 376 0
375 304 -376 0
376 493 -238 0
376 -493 238 0
-376 -493 -238 0
-376 493 238 0
377 -378 -380 0
377 -462 -494 -378 0
-377 378 0
-377 494 380 0
-377 462 380 0
-378 462 -305 -379 0
-378 462 305 379 0
378 -462 0
378 -305 379 0
378 305 -379 0
379 494 -242 0
379 -494 242 0
-379 -494 -242 0
-379 494 242 0
380 -381 -383 0
380 -463 -495 -381 0
-380 381 0
-380 495 383 0
-380 463 383 0
-381 463 -306 -382 0
-381 463 306 382 0
381 -463 0
381 -306 382 0
381 306 -382 0
382 495 -246 0
382 -495 246 0
-382 -495 -246 0
-382 495 246 0
383 -464 -384 0
383 -496 307 -384 0
383 -464 -496 0
383 496 -307 -384 0
-383 464 384 0
-383 464 496 307 0
-383 496 384 0
-383 464 -496 -307 0
384 -385 -387 0
384 -465 -497 -385 0
-384 385 0
-384 497 387 0
-384 465 387 0
-385 465 -308 -386 0
-385 465 308 386 0
385 -465 0
385 -308 386 0
385 308 -386 0
386 497 -252 0
386 -497 252 0
-386 -497 -252 0
-386 497 252 0
387 -388 -390 0
387 -466 -498 -388 0
-387 388 0
-387 498 390 0
-387 466 390 0
-388 466 -309 -389 0
-388 466 309 389 0
388 -466 0
388 -309 389 0
388 309 -389 0
389 498 -256 0
389 -498 256 0
-389 -498 -256 0
-389 498 256 0
390 -391 -393 0
390 -467 -499 -391 0
-390 391 0
-390 499 393 0
-390 467 393 0
-391 467 -310 -392 0
-391 467 310 392 0
391 -467 0
391 -310 392 0
391 310 -392 0
392 499 -260 0
392 -499 260 0
-392 -499 -260 0
-392 499 260 0
393 -394 -396 0
393 -468 -500 -394 0
-393 394 0
-393 500 396 0
-393 468 396 0
-394 468 -311 -395 0
-394 468 311 395 0
394 -468 0
394 -311 395 0
394 311 -395 0
395 500 -264 0
395 -500 264 0
-395 -500 -264 0
-395 500 264 0
396 -397 -399 0
396 -469 -501 -397 0
-396 397 0
-396 501 399 0
-396 469 399 0
-397 469 -312 -398 0
-397 469 312 398 0
397 -469 0
397 -312 398 0
397 312 -398 0
398 501 -270 0
398 -501 270 0
-398 -501 -270 0
-398 501 270 0
399 -400 -402 0
399 -470 -502 -400 0
-399 400 0
-399 502 402 0
-399 470 402 0
-400 470 -313 -401 0
-400 470 313 401 0
400 -470 0
400 -313 401 0
400 313 -401 0
401 502 -274 0
401 -502 274 0
-401 -502 -274 0
-401 502 274 0
402 -471 -404 0
402 314 -403 -404 0
402 -314 403 -404 0
-402 404 0
-402 471 -314 -403 0
-402 471 314 403 0
403 503 -278 0
403 -503 278 0
-403 -503 -278 0
-403 503 278 0
-404 405 407 0
-404 472 405 406 0
404 -405 0
404 -472 -407 0
404 -406 -407 0
405 -471 -503 0
-405 471 0
-405 503 0
406 504 -315 0
406 -504 315 0
-406 -504 -315 0
-406 504 315 0
-407 473 408 409 0
-407 408 36 409 0
-407 473 408 36 0
407 -473 -36 0
407 -36 -409 0
407 -408 0
407 -473 -409 0
408 -472 -504 0
-408 472 0
-408 504 0
409 505 -281 0
409 -505 281 0
-409 -505 -281 0
-409 505 281 0
410 111 -411 0
410 -111 411 0
-410 -111 -411 0
-410 111 411 0
411 -80 109 0
411 80 -109 0
-411 80 109 0
-411 -80 -109 0
412 320 -413 0
412 -320 413 0
-412 -320 -413 0
-412 320 413 0
413 317 -318 0
-413 -317 0
-413 318 0
-414 415 420 422 424 0
-414 415 -420 -422 424 0
414 -424 0
414 -420 422 0
414 -415 0
414 420 -422 0
415 416 -418 0
415 -416 418 0
-415 -416 -418 0
-415 416 418 0
416 129 -417 0
416 -129 417 0
-416 -129 -417 0
-416 129 417 0
417 -112 127 0
417 112 -127 0
-417 112 127 0
-417 -112 -127 0
418 324 -419 0
418 -324 419 0
-418 -324 -419 0
-418 324 419 0
419 321 -322 0
-419 -321 0
-419 322 0
420 146 -421 0
420 -146 421 0
-420 -146 -421 0
-420 146 421 0
421 -130 144 0
421 130 -144 0
-421 130 144 0
-421 -130 -144 0
422 328 -423 0
422 -328 423 0
-422 -328 -423 0
-422 328 423 0
423 325 -326 0
-423 -325 0
-423 326 0
-424 425 427 429 434 0
-424 -425 -427 429 434 0
424 -429 0
424 425 -427 0
424 -434 0
424 -425 427 0
425 156 -426 0
425 -156 426 0
-425 -156 -426 0
-425 156 426 0
426 -147 154 0
426 147 -154 0
-426 147 154 0
-426 -147 -154 0
427 332 -428 0
427 -332 428 0
-427 -332 -428 0
-427 332 428 0
428 329 -330 0
-428 -329 0
-428 330 0
429 430 -432 0
429 -430 432 0
-429 -430 -432 0
-429 430 432 0
430 165 -431 0
430 -165 431 0
-430 -165 -431 0
-430 165 431 0
431 -157 163 0
431 157 -163 0
-431 157 163 0
-431 -157 -163 0
432 336 -433 0
432 -336 433 0
-432 -336 -433 0
-432 336 433 0
433 333 -334 0
-433 -333 0
-433 334 0
-434 435 437 -439 -441 0
-434 -435 -437 -439 -441 0
-434 435 437 439 441 0
-434 -435 -437 439 441 0
434 435 -437 0
434 -435 437 0
434 439 -441 0
434 -439 441 0
435 175 -436 0
435 -175 436 0
-435 -175 -436 0
-435 175 436 0
436 -166 173 0
436 166 -173 0
-436 166 173 0
-436 -166 -173 0
437 340 -438 0
437 -340 438 0
-437 -340 -438 0
-437 340 438 0
438 337 -338 0
-438 -337 0
-438 338 0
439 184 -440 0
439 -184 440 0
-439 -184 -440 0
-439 184 440 0
440 -176 182 0
440 176 -182 0
-440 176 182 0
-440 -176 -182 0
441 344 -442 0
441 -344 442 0
-441 -344 -442 0
-441 344 442 0
442 341 -342 0
-442 -341 0
-442 342 0
-507 0
2 0

